32      4       
10      10      10      10      
0       0       0       0       0       3       2       5       9       
5       1       0       1       1       2       3       8       
7       5       0       5       1       2       4       31      
8       6       1       7       0       2       6       19      
9       0       3       2       3       2       8       19      
9       0       7       2       2       1       7       
10      2       3       0       4       3       10      15      22      
3       5       10      0       5       3       10      15      22      
10      9       2       0       6       2       11      15      
4       0       6       6       4       1       11      
10      5       4       0       4       2       12      18      
7       0       6       6       4       3       13      25      30      
2       4       0       4       4       1       14      
2       0       3       4       2       3       16      20      24      
10      0       4       6       9       2       17      20      
3       4       0       5       9       2       17      29      
7       2       4       0       4       3       21      27      28      
1       4       3       5       0       2       21      28      
9       0       8       3       5       1       22      
2       0       3       3       5       2       26      29      
3       3       0       5       3       1       23      
10      0       2       3       2       1       24      
3       3       0       5       3       1       26      
6       4       3       2       0       1       27      
8       5       0       1       6       1       26      
8       6       2       3       0       1       32      
5       4       2       5       0       1       32      
2       4       3       3       0       1       32      
7       3       0       6       2       1       32      
7       1       0       6       4       1       32      
1       4       5       2       0       1       32      
0       0       0       0       0       0       
